Academic license - for non-commercial use only - expires 2022-11-10
Using license file /home/benedond/Apps/gurobi/gurobi950/gurobi.lic
Using gurobi.env file
Set parameter Threads to value 1
Changed value of parameter TimeLimit to 1200.0
   Prev: inf  Min: 0.0  Max: inf  Default: inf
Gurobi Optimizer version 9.1.2 build v9.1.2rc0 (linux64)
Thread count: 2 physical cores, 4 logical processors, using up to 1 threads
Optimize a model with 1404 rows, 1283 columns and 6149 nonzeros
Model fingerprint: 0x3c7e98ef
Variable types: 48 continuous, 1235 integer (1235 binary)
Coefficient statistics:
  Matrix range     [2e-01, 5e+02]
  Objective range  [2e-02, 5e-01]
  Bounds range     [1e+00, 1e+00]
  RHS range        [1e+00, 1e+03]
Found heuristic solution: objective 3.9503981
Presolve removed 135 rows and 53 columns
Presolve time: 0.03s
Presolved: 1269 rows, 1230 columns, 5796 nonzeros
Variable types: 47 continuous, 1183 integer (1183 binary)

Root relaxation: objective 1.917454e+00, 1067 iterations, 0.02 seconds

    Nodes    |    Current Node    |     Objective Bounds      |     Work
 Expl Unexpl |  Obj  Depth IntInf | Incumbent    BestBd   Gap | It/Node Time

     0     0    1.91745    0   86    3.95040    1.91745  51.5%     -    0s
H    0     0                       3.9423107    1.91745  51.4%     -    0s
H    0     0                       3.4609126    1.91745  44.6%     -    0s
H    0     0                       2.8297476    1.91745  32.2%     -    0s
     0     0    2.02863    0  108    2.82975    2.02863  28.3%     -    0s
     0     0    2.10291    0   94    2.82975    2.10291  25.7%     -    0s
H    0     0                       2.8225534    2.10291  25.5%     -    0s
     0     0    2.10606    0  105    2.82255    2.10606  25.4%     -    0s
     0     0    2.12895    0  118    2.82255    2.12895  24.6%     -    0s
H    0     0                       2.6937767    2.12895  21.0%     -    0s
     0     0    2.15073    0   82    2.69378    2.15073  20.2%     -    0s
     0     0    2.16297    0   79    2.69378    2.16297  19.7%     -    0s
     0     0    2.17727    0   78    2.69378    2.17727  19.2%     -    0s
     0     0    2.17946    0   83    2.69378    2.17946  19.1%     -    0s
     0     0    2.18024    0   79    2.69378    2.18024  19.1%     -    0s
     0     0    2.18024    0   79    2.69378    2.18024  19.1%     -    0s
     0     0    2.18853    0   81    2.69378    2.18853  18.8%     -    0s
     0     0    2.19147    0   51    2.69378    2.19147  18.6%     -    0s
     0     0    2.19158    0   53    2.69378    2.19158  18.6%     -    0s
     0     0    2.20592    0   75    2.69378    2.20592  18.1%     -    0s
     0     0    2.21833    0  107    2.69378    2.21833  17.6%     -    0s
     0     0    2.21968    0  101    2.69378    2.21968  17.6%     -    0s
     0     0    2.21971    0   99    2.69378    2.21971  17.6%     -    0s
     0     0    2.22417    0  111    2.69378    2.22417  17.4%     -    0s
H    0     0                       2.5481456    2.22417  12.7%     -    0s
     0     0    2.22560    0  103    2.54815    2.22560  12.7%     -    0s
     0     0    2.22571    0   96    2.54815    2.22571  12.7%     -    0s
     0     0    2.23371    0   84    2.54815    2.23371  12.3%     -    0s
     0     0    2.23382    0   83    2.54815    2.23382  12.3%     -    0s
     0     0    2.23790    0   69    2.54815    2.23790  12.2%     -    0s
     0     0    2.23827    0   84    2.54815    2.23827  12.2%     -    0s
     0     0    2.23862    0   81    2.54815    2.23862  12.1%     -    0s
     0     0    2.23862    0   81    2.54815    2.23862  12.1%     -    0s
     0     0    2.23985    0   76    2.54815    2.23985  12.1%     -    0s
     0     0    2.23985    0   76    2.54815    2.23985  12.1%     -    0s
     0     2    2.24119    0   72    2.54815    2.24119  12.0%     -    0s
H   26    24                       2.4885922    2.25111  9.54%  89.8    1s
H   27    25                       2.4594369    2.25111  8.47%  89.6    1s
H  141    84                       2.4557670    2.26364  7.82%  48.2    2s
H  164    97                       2.4483107    2.26364  7.54%  45.8    2s
H  218    51                       2.3808738    2.27305  4.53%  47.9    2s

Cutting planes:
  Gomory: 1
  Cover: 17
  Implied bound: 16
  Clique: 15
  MIR: 126
  StrongCG: 5
  Zero half: 1
  Mod-K: 2
  RLT: 31
  Relax-and-lift: 140

Explored 359 nodes (23520 simplex iterations) in 3.01 seconds
Thread count was 1 (of 4 available processors)

Solution count 10: 2.38087 2.44831 2.45944 ... 3.94231
No other solutions better than 2.38087

Optimal solution found (tolerance 1.00e-04)
Best objective 2.380873693610e+00, best bound 2.380873693610e+00, gap 0.0000%
